0 0 0 0
0 1 0 6
0 2 0 0
0 3 0 0
0 4 0 6
0 5 0 9
0 6 1 4
0 7 2 9
0 8 2 10
0 9 0 19
0 10 1 12
0 11 1 19
0 12 0 12
0 13 0 11
0 14 0 15
0 15 2 29
0 16 2 21
0 17 1 22
0 18 2 23
0 19 0 15
0 20 1 26
0 21 0 30
0 22 0 22
0 23 1 30
0 24 0 35
0 25 2 26
0 26 1 23
0 27 1 35
0 28 2 35
0 29 1 41
0 30 0 36
0 31 0 44
